HUN,8,6,780
1,1,2,2,0,26,3,20,5,24,4,20
0,7,1,11,2,22,4,11,5,20,3,22
2,13,0,1,1,19,3,1,5,16,4,1
1,13,2,4,0,27,5,12,4,19,3,17
0,29,2,16,1,23,5,20,4,22,3,7
1,6,2,17,0,13,5,2,3,4,4,3
0,6,2,17,1,4,5,11,4,15,3,26
2,12,0,30,1,1,5,16,4,11,3,25
